NAME : amz2536.169013_169013.tour
COMMENT : Cost = 169013_169013
COMMENT : Found by LKH-AMZ [Keld Helsgaun] Sun May 11 14:00:26 2025
COMMENT : TW viol.: 0 #: 0
TYPE : TOUR
DIMENSION : 127
TOUR_SECTION
64
29
45
80
116
66
18
105
37
61
63
10
57
12
38
79
27
3
123
33
40
87
73
17
94
41
60
50
98
35
58
120
106
71
91
81
121
101
59
53
32
15
97
82
55
110
19
16
114
78
25
112
103
46
127
76
26
95
107
111
109
86
20
83
126
30
42
24
6
65
70
115
11
62
21
36
23
49
92
7
31
77
5
14
117
74
2
34
1
102
113
89
104
4
22
51
54
119
28
84
85
67
122
68
99
47
43
39
88
13
69
108
52
100
96
124
44
9
75
90
118
56
125
48
8
93
72
-1
EOF
